c description: Graph pigeonhole principle formula on fast_gnp_random_graph(20,10,0.9)
c generator: CNFgen (0.9.0)
c copyright: (C) 2012-2020 Massimo Lauria <massimo.lauria@uniroma1.it>
c url: https://massimolauria.net/cnfgen
c
p cnf 186 1665
1 2 3 4 5 6 7 8 9 10 0
11 12 13 14 15 16 17 18 19 0
20 21 22 23 24 25 26 27 28 0
29 30 31 32 33 34 35 36 37 0
38 39 40 41 42 43 44 45 46 47 0
48 49 50 51 52 53 54 55 56 0
57 58 59 60 61 62 63 64 65 0
66 67 68 69 70 71 72 73 74 75 0
76 77 78 79 80 81 82 83 0
84 85 86 87 88 89 90 91 92 0
93 94 95 96 97 98 99 100 101 0
102 103 104 105 106 107 108 109 0
110 111 112 113 114 115 116 117 118 0
119 120 121 122 123 124 125 126 127 128 0
129 130 131 132 133 134 135 136 137 138 0
139 140 141 142 143 144 145 146 147 0
148 149 150 151 152 153 154 155 156 157 0
158 159 160 161 162 163 164 165 166 167 0
168 169 170 171 172 173 174 175 176 177 0
178 179 180 181 182 183 184 185 186 0
-1 -11 0
-1 -20 0
-1 -29 0
-1 -38 0
-1 -48 0
-1 -57 0
-1 -66 0
-1 -76 0
-1 -84 0
-1 -93 0
-1 -102 0
-1 -110 0
-1 -119 0
-1 -129 0
-1 -139 0
-1 -148 0
-1 -158 0
-1 -168 0
-1 -178 0
-11 -20 0
-11 -29 0
-11 -38 0
-11 -48 0
-11 -57 0
-11 -66 0
-11 -76 0
-11 -84 0
-11 -93 0
-11 -102 0
-11 -110 0
-11 -119 0
-11 -129 0
-11 -139 0
-11 -148 0
-11 -158 0
-11 -168 0
-11 -178 0
-20 -29 0
-20 -38 0
-20 -48 0
-20 -57 0
-20 -66 0
-20 -76 0
-20 -84 0
-20 -93 0
-20 -102 0
-20 -110 0
-20 -119 0
-20 -129 0
-20 -139 0
-20 -148 0
-20 -158 0
-20 -168 0
-20 -178 0
-29 -38 0
-29 -48 0
-29 -57 0
-29 -66 0
-29 -76 0
-29 -84 0
-29 -93 0
-29 -102 0
-29 -110 0
-29 -119 0
-29 -129 0
-29 -139 0
-29 -148 0
-29 -158 0
-29 -168 0
-29 -178 0
-38 -48 0
-38 -57 0
-38 -66 0
-38 -76 0
-38 -84 0
-38 -93 0
-38 -102 0
-38 -110 0
-38 -119 0
-38 -129 0
-38 -139 0
-38 -148 0
-38 -158 0
-38 -168 0
-38 -178 0
-48 -57 0
-48 -66 0
-48 -76 0
-48 -84 0
-48 -93 0
-48 -102 0
-48 -110 0
-48 -119 0
-48 -129 0
-48 -139 0
-48 -148 0
-48 -158 0
-48 -168 0
-48 -178 0
-57 -66 0
-57 -76 0
-57 -84 0
-57 -93 0
-57 -102 0
-57 -110 0
-57 -119 0
-57 -129 0
-57 -139 0
-57 -148 0
-57 -158 0
-57 -168 0
-57 -178 0
-66 -76 0
-66 -84 0
-66 -93 0
-66 -102 0
-66 -110 0
-66 -119 0
-66 -129 0
-66 -139 0
-66 -148 0
-66 -158 0
-66 -168 0
-66 -178 0
-76 -84 0
-76 -93 0
-76 -102 0
-76 -110 0
-76 -119 0
-76 -129 0
-76 -139 0
-76 -148 0
-76 -158 0
-76 -168 0
-76 -178 0
-84 -93 0
-84 -102 0
-84 -110 0
-84 -119 0
-84 -129 0
-84 -139 0
-84 -148 0
-84 -158 0
-84 -168 0
-84 -178 0
-93 -102 0
-93 -110 0
-93 -119 0
-93 -129 0
-93 -139 0
-93 -148 0
-93 -158 0
-93 -168 0
-93 -178 0
-102 -110 0
-102 -119 0
-102 -129 0
-102 -139 0
-102 -148 0
-102 -158 0
-102 -168 0
-102 -178 0
-110 -119 0
-110 -129 0
-110 -139 0
-110 -148 0
-110 -158 0
-110 -168 0
-110 -178 0
-119 -129 0
-119 -139 0
-119 -148 0
-119 -158 0
-119 -168 0
-119 -178 0
-129 -139 0
-129 -148 0
-129 -158 0
-129 -168 0
-129 -178 0
-139 -148 0
-139 -158 0
-139 -168 0
-139 -178 0
-148 -158 0
-148 -168 0
-148 -178 0
-158 -168 0
-158 -178 0
-168 -178 0
-2 -12 0
-2 -21 0
-2 -30 0
-2 -39 0
-2 -49 0
-2 -67 0
-2 -77 0
-2 -85 0
-2 -94 0
-2 -103 0
-2 -111 0
-2 -120 0
-2 -130 0
-2 -140 0
-2 -149 0
-2 -159 0
-2 -169 0
-2 -179 0
-12 -21 0
-12 -30 0
-12 -39 0
-12 -49 0
-12 -67 0
-12 -77 0
-12 -85 0
-12 -94 0
-12 -103 0
-12 -111 0
-12 -120 0
-12 -130 0
-12 -140 0
-12 -149 0
-12 -159 0
-12 -169 0
-12 -179 0
-21 -30 0
-21 -39 0
-21 -49 0
-21 -67 0
-21 -77 0
-21 -85 0
-21 -94 0
-21 -103 0
-21 -111 0
-21 -120 0
-21 -130 0
-21 -140 0
-21 -149 0
-21 -159 0
-21 -169 0
-21 -179 0
-30 -39 0
-30 -49 0
-30 -67 0
-30 -77 0
-30 -85 0
-30 -94 0
-30 -103 0
-30 -111 0
-30 -120 0
-30 -130 0
-30 -140 0
-30 -149 0
-30 -159 0
-30 -169 0
-30 -179 0
-39 -49 0
-39 -67 0
-39 -77 0
-39 -85 0
-39 -94 0
-39 -103 0
-39 -111 0
-39 -120 0
-39 -130 0
-39 -140 0
-39 -149 0
-39 -159 0
-39 -169 0
-39 -179 0
-49 -67 0
-49 -77 0
-49 -85 0
-49 -94 0
-49 -103 0
-49 -111 0
-49 -120 0
-49 -130 0
-49 -140 0
-49 -149 0
-49 -159 0
-49 -169 0
-49 -179 0
-67 -77 0
-67 -85 0
-67 -94 0
-67 -103 0
-67 -111 0
-67 -120 0
-67 -130 0
-67 -140 0
-67 -149 0
-67 -159 0
-67 -169 0
-67 -179 0
-77 -85 0
-77 -94 0
-77 -103 0
-77 -111 0
-77 -120 0
-77 -130 0
-77 -140 0
-77 -149 0
-77 -159 0
-77 -169 0
-77 -179 0
-85 -94 0
-85 -103 0
-85 -111 0
-85 -120 0
-85 -130 0
-85 -140 0
-85 -149 0
-85 -159 0
-85 -169 0
-85 -179 0
-94 -103 0
-94 -111 0
-94 -120 0
-94 -130 0
-94 -140 0
-94 -149 0
-94 -159 0
-94 -169 0
-94 -179 0
-103 -111 0
-103 -120 0
-103 -130 0
-103 -140 0
-103 -149 0
-103 -159 0
-103 -169 0
-103 -179 0
-111 -120 0
-111 -130 0
-111 -140 0
-111 -149 0
-111 -159 0
-111 -169 0
-111 -179 0
-120 -130 0
-120 -140 0
-120 -149 0
-120 -159 0
-120 -169 0
-120 -179 0
-130 -140 0
-130 -149 0
-130 -159 0
-130 -169 0
-130 -179 0
-140 -149 0
-140 -159 0
-140 -169 0
-140 -179 0
-149 -159 0
-149 -169 0
-149 -179 0
-159 -169 0
-159 -179 0
-169 -179 0
-3 -13 0
-3 -22 0
-3 -31 0
-3 -40 0
-3 -50 0
-3 -58 0
-3 -68 0
-3 -78 0
-3 -86 0
-3 -95 0
-3 -104 0
-3 -112 0
-3 -121 0
-3 -131 0
-3 -141 0
-3 -150 0
-3 -160 0
-3 -170 0
-3 -180 0
-13 -22 0
-13 -31 0
-13 -40 0
-13 -50 0
-13 -58 0
-13 -68 0
-13 -78 0
-13 -86 0
-13 -95 0
-13 -104 0
-13 -112 0
-13 -121 0
-13 -131 0
-13 -141 0
-13 -150 0
-13 -160 0
-13 -170 0
-13 -180 0
-22 -31 0
-22 -40 0
-22 -50 0
-22 -58 0
-22 -68 0
-22 -78 0
-22 -86 0
-22 -95 0
-22 -104 0
-22 -112 0
-22 -121 0
-22 -131 0
-22 -141 0
-22 -150 0
-22 -160 0
-22 -170 0
-22 -180 0
-31 -40 0
-31 -50 0
-31 -58 0
-31 -68 0
-31 -78 0
-31 -86 0
-31 -95 0
-31 -104 0
-31 -112 0
-31 -121 0
-31 -131 0
-31 -141 0
-31 -150 0
-31 -160 0
-31 -170 0
-31 -180 0
-40 -50 0
-40 -58 0
-40 -68 0
-40 -78 0
-40 -86 0
-40 -95 0
-40 -104 0
-40 -112 0
-40 -121 0
-40 -131 0
-40 -141 0
-40 -150 0
-40 -160 0
-40 -170 0
-40 -180 0
-50 -58 0
-50 -68 0
-50 -78 0
-50 -86 0
-50 -95 0
-50 -104 0
-50 -112 0
-50 -121 0
-50 -131 0
-50 -141 0
-50 -150 0
-50 -160 0
-50 -170 0
-50 -180 0
-58 -68 0
-58 -78 0
-58 -86 0
-58 -95 0
-58 -104 0
-58 -112 0
-58 -121 0
-58 -131 0
-58 -141 0
-58 -150 0
-58 -160 0
-58 -170 0
-58 -180 0
-68 -78 0
-68 -86 0
-68 -95 0
-68 -104 0
-68 -112 0
-68 -121 0
-68 -131 0
-68 -141 0
-68 -150 0
-68 -160 0
-68 -170 0
-68 -180 0
-78 -86 0
-78 -95 0
-78 -104 0
-78 -112 0
-78 -121 0
-78 -131 0
-78 -141 0
-78 -150 0
-78 -160 0
-78 -170 0
-78 -180 0
-86 -95 0
-86 -104 0
-86 -112 0
-86 -121 0
-86 -131 0
-86 -141 0
-86 -150 0
-86 -160 0
-86 -170 0
-86 -180 0
-95 -104 0
-95 -112 0
-95 -121 0
-95 -131 0
-95 -141 0
-95 -150 0
-95 -160 0
-95 -170 0
-95 -180 0
-104 -112 0
-104 -121 0
-104 -131 0
-104 -141 0
-104 -150 0
-104 -160 0
-104 -170 0
-104 -180 0
-112 -121 0
-112 -131 0
-112 -141 0
-112 -150 0
-112 -160 0
-112 -170 0
-112 -180 0
-121 -131 0
-121 -141 0
-121 -150 0
-121 -160 0
-121 -170 0
-121 -180 0
-131 -141 0
-131 -150 0
-131 -160 0
-131 -170 0
-131 -180 0
-141 -150 0
-141 -160 0
-141 -170 0
-141 -180 0
-150 -160 0
-150 -170 0
-150 -180 0
-160 -170 0
-160 -180 0
-170 -180 0
-4 -14 0
-4 -23 0
-4 -32 0
-4 -41 0
-4 -59 0
-4 -69 0
-4 -87 0
-4 -113 0
-4 -122 0
-4 -132 0
-4 -142 0
-4 -151 0
-4 -161 0
-4 -171 0
-4 -181 0
-14 -23 0
-14 -32 0
-14 -41 0
-14 -59 0
-14 -69 0
-14 -87 0
-14 -113 0
-14 -122 0
-14 -132 0
-14 -142 0
-14 -151 0
-14 -161 0
-14 -171 0
-14 -181 0
-23 -32 0
-23 -41 0
-23 -59 0
-23 -69 0
-23 -87 0
-23 -113 0
-23 -122 0
-23 -132 0
-23 -142 0
-23 -151 0
-23 -161 0
-23 -171 0
-23 -181 0
-32 -41 0
-32 -59 0
-32 -69 0
-32 -87 0
-32 -113 0
-32 -122 0
-32 -132 0
-32 -142 0
-32 -151 0
-32 -161 0
-32 -171 0
-32 -181 0
-41 -59 0
-41 -69 0
-41 -87 0
-41 -113 0
-41 -122 0
-41 -132 0
-41 -142 0
-41 -151 0
-41 -161 0
-41 -171 0
-41 -181 0
-59 -69 0
-59 -87 0
-59 -113 0
-59 -122 0
-59 -132 0
-59 -142 0
-59 -151 0
-59 -161 0
-59 -171 0
-59 -181 0
-69 -87 0
-69 -113 0
-69 -122 0
-69 -132 0
-69 -142 0
-69 -151 0
-69 -161 0
-69 -171 0
-69 -181 0
-87 -113 0
-87 -122 0
-87 -132 0
-87 -142 0
-87 -151 0
-87 -161 0
-87 -171 0
-87 -181 0
-113 -122 0
-113 -132 0
-113 -142 0
-113 -151 0
-113 -161 0
-113 -171 0
-113 -181 0
-122 -132 0
-122 -142 0
-122 -151 0
-122 -161 0
-122 -171 0
-122 -181 0
-132 -142 0
-132 -151 0
-132 -161 0
-132 -171 0
-132 -181 0
-142 -151 0
-142 -161 0
-142 -171 0
-142 -181 0
-151 -161 0
-151 -171 0
-151 -181 0
-161 -171 0
-161 -181 0
-171 -181 0
-5 -15 0
-5 -24 0
-5 -42 0
-5 -51 0
-5 -60 0
-5 -70 0
-5 -79 0
-5 -88 0
-5 -96 0
-5 -105 0
-5 -114 0
-5 -123 0
-5 -133 0
-5 -143 0
-5 -152 0
-5 -162 0
-5 -172 0
-15 -24 0
-15 -42 0
-15 -51 0
-15 -60 0
-15 -70 0
-15 -79 0
-15 -88 0
-15 -96 0
-15 -105 0
-15 -114 0
-15 -123 0
-15 -133 0
-15 -143 0
-15 -152 0
-15 -162 0
-15 -172 0
-24 -42 0
-24 -51 0
-24 -60 0
-24 -70 0
-24 -79 0
-24 -88 0
-24 -96 0
-24 -105 0
-24 -114 0
-24 -123 0
-24 -133 0
-24 -143 0
-24 -152 0
-24 -162 0
-24 -172 0
-42 -51 0
-42 -60 0
-42 -70 0
-42 -79 0
-42 -88 0
-42 -96 0
-42 -105 0
-42 -114 0
-42 -123 0
-42 -133 0
-42 -143 0
-42 -152 0
-42 -162 0
-42 -172 0
-51 -60 0
-51 -70 0
-51 -79 0
-51 -88 0
-51 -96 0
-51 -105 0
-51 -114 0
-51 -123 0
-51 -133 0
-51 -143 0
-51 -152 0
-51 -162 0
-51 -172 0
-60 -70 0
-60 -79 0
-60 -88 0
-60 -96 0
-60 -105 0
-60 -114 0
-60 -123 0
-60 -133 0
-60 -143 0
-60 -152 0
-60 -162 0
-60 -172 0
-70 -79 0
-70 -88 0
-70 -96 0
-70 -105 0
-70 -114 0
-70 -123 0
-70 -133 0
-70 -143 0
-70 -152 0
-70 -162 0
-70 -172 0
-79 -88 0
-79 -96 0
-79 -105 0
-79 -114 0
-79 -123 0
-79 -133 0
-79 -143 0
-79 -152 0
-79 -162 0
-79 -172 0
-88 -96 0
-88 -105 0
-88 -114 0
-88 -123 0
-88 -133 0
-88 -143 0
-88 -152 0
-88 -162 0
-88 -172 0
-96 -105 0
-96 -114 0
-96 -123 0
-96 -133 0
-96 -143 0
-96 -152 0
-96 -162 0
-96 -172 0
-105 -114 0
-105 -123 0
-105 -133 0
-105 -143 0
-105 -152 0
-105 -162 0
-105 -172 0
-114 -123 0
-114 -133 0
-114 -143 0
-114 -152 0
-114 -162 0
-114 -172 0
-123 -133 0
-123 -143 0
-123 -152 0
-123 -162 0
-123 -172 0
-133 -143 0
-133 -152 0
-133 -162 0
-133 -172 0
-143 -152 0
-143 -162 0
-143 -172 0
-152 -162 0
-152 -172 0
-162 -172 0
-6 -16 0
-6 -25 0
-6 -33 0
-6 -43 0
-6 -52 0
-6 -61 0
-6 -71 0
-6 -80 0
-6 -89 0
-6 -97 0
-6 -106 0
-6 -115 0
-6 -124 0
-6 -134 0
-6 -144 0
-6 -153 0
-6 -163 0
-6 -173 0
-6 -182 0
-16 -25 0
-16 -33 0
-16 -43 0
-16 -52 0
-16 -61 0
-16 -71 0
-16 -80 0
-16 -89 0
-16 -97 0
-16 -106 0
-16 -115 0
-16 -124 0
-16 -134 0
-16 -144 0
-16 -153 0
-16 -163 0
-16 -173 0
-16 -182 0
-25 -33 0
-25 -43 0
-25 -52 0
-25 -61 0
-25 -71 0
-25 -80 0
-25 -89 0
-25 -97 0
-25 -106 0
-25 -115 0
-25 -124 0
-25 -134 0
-25 -144 0
-25 -153 0
-25 -163 0
-25 -173 0
-25 -182 0
-33 -43 0
-33 -52 0
-33 -61 0
-33 -71 0
-33 -80 0
-33 -89 0
-33 -97 0
-33 -106 0
-33 -115 0
-33 -124 0
-33 -134 0
-33 -144 0
-33 -153 0
-33 -163 0
-33 -173 0
-33 -182 0
-43 -52 0
-43 -61 0
-43 -71 0
-43 -80 0
-43 -89 0
-43 -97 0
-43 -106 0
-43 -115 0
-43 -124 0
-43 -134 0
-43 -144 0
-43 -153 0
-43 -163 0
-43 -173 0
-43 -182 0
-52 -61 0
-52 -71 0
-52 -80 0
-52 -89 0
-52 -97 0
-52 -106 0
-52 -115 0
-52 -124 0
-52 -134 0
-52 -144 0
-52 -153 0
-52 -163 0
-52 -173 0
-52 -182 0
-61 -71 0
-61 -80 0
-61 -89 0
-61 -97 0
-61 -106 0
-61 -115 0
-61 -124 0
-61 -134 0
-61 -144 0
-61 -153 0
-61 -163 0
-61 -173 0
-61 -182 0
-71 -80 0
-71 -89 0
-71 -97 0
-71 -106 0
-71 -115 0
-71 -124 0
-71 -134 0
-71 -144 0
-71 -153 0
-71 -163 0
-71 -173 0
-71 -182 0
-80 -89 0
-80 -97 0
-80 -106 0
-80 -115 0
-80 -124 0
-80 -134 0
-80 -144 0
-80 -153 0
-80 -163 0
-80 -173 0
-80 -182 0
-89 -97 0
-89 -106 0
-89 -115 0
-89 -124 0
-89 -134 0
-89 -144 0
-89 -153 0
-89 -163 0
-89 -173 0
-89 -182 0
-97 -106 0
-97 -115 0
-97 -124 0
-97 -134 0
-97 -144 0
-97 -153 0
-97 -163 0
-97 -173 0
-97 -182 0
-106 -115 0
-106 -124 0
-106 -134 0
-106 -144 0
-106 -153 0
-106 -163 0
-106 -173 0
-106 -182 0
-115 -124 0
-115 -134 0
-115 -144 0
-115 -153 0
-115 -163 0
-115 -173 0
-115 -182 0
-124 -134 0
-124 -144 0
-124 -153 0
-124 -163 0
-124 -173 0
-124 -182 0
-134 -144 0
-134 -153 0
-134 -163 0
-134 -173 0
-134 -182 0
-144 -153 0
-144 -163 0
-144 -173 0
-144 -182 0
-153 -163 0
-153 -173 0
-153 -182 0
-163 -173 0
-163 -182 0
-173 -182 0
-7 -17 0
-7 -26 0
-7 -34 0
-7 -44 0
-7 -53 0
-7 -62 0
-7 -72 0
-7 -81 0
-7 -90 0
-7 -98 0
-7 -125 0
-7 -135 0
-7 -154 0
-7 -164 0
-7 -174 0
-7 -183 0
-17 -26 0
-17 -34 0
-17 -44 0
-17 -53 0
-17 -62 0
-17 -72 0
-17 -81 0
-17 -90 0
-17 -98 0
-17 -125 0
-17 -135 0
-17 -154 0
-17 -164 0
-17 -174 0
-17 -183 0
-26 -34 0
-26 -44 0
-26 -53 0
-26 -62 0
-26 -72 0
-26 -81 0
-26 -90 0
-26 -98 0
-26 -125 0
-26 -135 0
-26 -154 0
-26 -164 0
-26 -174 0
-26 -183 0
-34 -44 0
-34 -53 0
-34 -62 0
-34 -72 0
-34 -81 0
-34 -90 0
-34 -98 0
-34 -125 0
-34 -135 0
-34 -154 0
-34 -164 0
-34 -174 0
-34 -183 0
-44 -53 0
-44 -62 0
-44 -72 0
-44 -81 0
-44 -90 0
-44 -98 0
-44 -125 0
-44 -135 0
-44 -154 0
-44 -164 0
-44 -174 0
-44 -183 0
-53 -62 0
-53 -72 0
-53 -81 0
-53 -90 0
-53 -98 0
-53 -125 0
-53 -135 0
-53 -154 0
-53 -164 0
-53 -174 0
-53 -183 0
-62 -72 0
-62 -81 0
-62 -90 0
-62 -98 0
-62 -125 0
-62 -135 0
-62 -154 0
-62 -164 0
-62 -174 0
-62 -183 0
-72 -81 0
-72 -90 0
-72 -98 0
-72 -125 0
-72 -135 0
-72 -154 0
-72 -164 0
-72 -174 0
-72 -183 0
-81 -90 0
-81 -98 0
-81 -125 0
-81 -135 0
-81 -154 0
-81 -164 0
-81 -174 0
-81 -183 0
-90 -98 0
-90 -125 0
-90 -135 0
-90 -154 0
-90 -164 0
-90 -174 0
-90 -183 0
-98 -125 0
-98 -135 0
-98 -154 0
-98 -164 0
-98 -174 0
-98 -183 0
-125 -135 0
-125 -154 0
-125 -164 0
-125 -174 0
-125 -183 0
-135 -154 0
-135 -164 0
-135 -174 0
-135 -183 0
-154 -164 0
-154 -174 0
-154 -183 0
-164 -174 0
-164 -183 0
-174 -183 0
-8 -27 0
-8 -35 0
-8 -45 0
-8 -54 0
-8 -63 0
-8 -73 0
-8 -82 0
-8 -91 0
-8 -99 0
-8 -107 0
-8 -116 0
-8 -126 0
-8 -136 0
-8 -145 0
-8 -155 0
-8 -165 0
-8 -175 0
-8 -184 0
-27 -35 0
-27 -45 0
-27 -54 0
-27 -63 0
-27 -73 0
-27 -82 0
-27 -91 0
-27 -99 0
-27 -107 0
-27 -116 0
-27 -126 0
-27 -136 0
-27 -145 0
-27 -155 0
-27 -165 0
-27 -175 0
-27 -184 0
-35 -45 0
-35 -54 0
-35 -63 0
-35 -73 0
-35 -82 0
-35 -91 0
-35 -99 0
-35 -107 0
-35 -116 0
-35 -126 0
-35 -136 0
-35 -145 0
-35 -155 0
-35 -165 0
-35 -175 0
-35 -184 0
-45 -54 0
-45 -63 0
-45 -73 0
-45 -82 0
-45 -91 0
-45 -99 0
-45 -107 0
-45 -116 0
-45 -126 0
-45 -136 0
-45 -145 0
-45 -155 0
-45 -165 0
-45 -175 0
-45 -184 0
-54 -63 0
-54 -73 0
-54 -82 0
-54 -91 0
-54 -99 0
-54 -107 0
-54 -116 0
-54 -126 0
-54 -136 0
-54 -145 0
-54 -155 0
-54 -165 0
-54 -175 0
-54 -184 0
-63 -73 0
-63 -82 0
-63 -91 0
-63 -99 0
-63 -107 0
-63 -116 0
-63 -126 0
-63 -136 0
-63 -145 0
-63 -155 0
-63 -165 0
-63 -175 0
-63 -184 0
-73 -82 0
-73 -91 0
-73 -99 0
-73 -107 0
-73 -116 0
-73 -126 0
-73 -136 0
-73 -145 0
-73 -155 0
-73 -165 0
-73 -175 0
-73 -184 0
-82 -91 0
-82 -99 0
-82 -107 0
-82 -116 0
-82 -126 0
-82 -136 0
-82 -145 0
-82 -155 0
-82 -165 0
-82 -175 0
-82 -184 0
-91 -99 0
-91 -107 0
-91 -116 0
-91 -126 0
-91 -136 0
-91 -145 0
-91 -155 0
-91 -165 0
-91 -175 0
-91 -184 0
-99 -107 0
-99 -116 0
-99 -126 0
-99 -136 0
-99 -145 0
-99 -155 0
-99 -165 0
-99 -175 0
-99 -184 0
-107 -116 0
-107 -126 0
-107 -136 0
-107 -145 0
-107 -155 0
-107 -165 0
-107 -175 0
-107 -184 0
-116 -126 0
-116 -136 0
-116 -145 0
-116 -155 0
-116 -165 0
-116 -175 0
-116 -184 0
-126 -136 0
-126 -145 0
-126 -155 0
-126 -165 0
-126 -175 0
-126 -184 0
-136 -145 0
-136 -155 0
-136 -165 0
-136 -175 0
-136 -184 0
-145 -155 0
-145 -165 0
-145 -175 0
-145 -184 0
-155 -165 0
-155 -175 0
-155 -184 0
-165 -175 0
-165 -184 0
-175 -184 0
-9 -18 0
-9 -28 0
-9 -36 0
-9 -46 0
-9 -55 0
-9 -64 0
-9 -74 0
-9 -92 0
-9 -100 0
-9 -108 0
-9 -117 0
-9 -127 0
-9 -137 0
-9 -146 0
-9 -156 0
-9 -166 0
-9 -176 0
-9 -185 0
-18 -28 0
-18 -36 0
-18 -46 0
-18 -55 0
-18 -64 0
-18 -74 0
-18 -92 0
-18 -100 0
-18 -108 0
-18 -117 0
-18 -127 0
-18 -137 0
-18 -146 0
-18 -156 0
-18 -166 0
-18 -176 0
-18 -185 0
-28 -36 0
-28 -46 0
-28 -55 0
-28 -64 0
-28 -74 0
-28 -92 0
-28 -100 0
-28 -108 0
-28 -117 0
-28 -127 0
-28 -137 0
-28 -146 0
-28 -156 0
-28 -166 0
-28 -176 0
-28 -185 0
-36 -46 0
-36 -55 0
-36 -64 0
-36 -74 0
-36 -92 0
-36 -100 0
-36 -108 0
-36 -117 0
-36 -127 0
-36 -137 0
-36 -146 0
-36 -156 0
-36 -166 0
-36 -176 0
-36 -185 0
-46 -55 0
-46 -64 0
-46 -74 0
-46 -92 0
-46 -100 0
-46 -108 0
-46 -117 0
-46 -127 0
-46 -137 0
-46 -146 0
-46 -156 0
-46 -166 0
-46 -176 0
-46 -185 0
-55 -64 0
-55 -74 0
-55 -92 0
-55 -100 0
-55 -108 0
-55 -117 0
-55 -127 0
-55 -137 0
-55 -146 0
-55 -156 0
-55 -166 0
-55 -176 0
-55 -185 0
-64 -74 0
-64 -92 0
-64 -100 0
-64 -108 0
-64 -117 0
-64 -127 0
-64 -137 0
-64 -146 0
-64 -156 0
-64 -166 0
-64 -176 0
-64 -185 0
-74 -92 0
-74 -100 0
-74 -108 0
-74 -117 0
-74 -127 0
-74 -137 0
-74 -146 0
-74 -156 0
-74 -166 0
-74 -176 0
-74 -185 0
-92 -100 0
-92 -108 0
-92 -117 0
-92 -127 0
-92 -137 0
-92 -146 0
-92 -156 0
-92 -166 0
-92 -176 0
-92 -185 0
-100 -108 0
-100 -117 0
-100 -127 0
-100 -137 0
-100 -146 0
-100 -156 0
-100 -166 0
-100 -176 0
-100 -185 0
-108 -117 0
-108 -127 0
-108 -137 0
-108 -146 0
-108 -156 0
-108 -166 0
-108 -176 0
-108 -185 0
-117 -127 0
-117 -137 0
-117 -146 0
-117 -156 0
-117 -166 0
-117 -176 0
-117 -185 0
-127 -137 0
-127 -146 0
-127 -156 0
-127 -166 0
-127 -176 0
-127 -185 0
-137 -146 0
-137 -156 0
-137 -166 0
-137 -176 0
-137 -185 0
-146 -156 0
-146 -166 0
-146 -176 0
-146 -185 0
-156 -166 0
-156 -176 0
-156 -185 0
-166 -176 0
-166 -185 0
-176 -185 0
-10 -19 0
-10 -37 0
-10 -47 0
-10 -56 0
-10 -65 0
-10 -75 0
-10 -83 0
-10 -101 0
-10 -109 0
-10 -118 0
-10 -128 0
-10 -138 0
-10 -147 0
-10 -157 0
-10 -167 0
-10 -177 0
-10 -186 0
-19 -37 0
-19 -47 0
-19 -56 0
-19 -65 0
-19 -75 0
-19 -83 0
-19 -101 0
-19 -109 0
-19 -118 0
-19 -128 0
-19 -138 0
-19 -147 0
-19 -157 0
-19 -167 0
-19 -177 0
-19 -186 0
-37 -47 0
-37 -56 0
-37 -65 0
-37 -75 0
-37 -83 0
-37 -101 0
-37 -109 0
-37 -118 0
-37 -128 0
-37 -138 0
-37 -147 0
-37 -157 0
-37 -167 0
-37 -177 0
-37 -186 0
-47 -56 0
-47 -65 0
-47 -75 0
-47 -83 0
-47 -101 0
-47 -109 0
-47 -118 0
-47 -128 0
-47 -138 0
-47 -147 0
-47 -157 0
-47 -167 0
-47 -177 0
-47 -186 0
-56 -65 0
-56 -75 0
-56 -83 0
-56 -101 0
-56 -109 0
-56 -118 0
-56 -128 0
-56 -138 0
-56 -147 0
-56 -157 0
-56 -167 0
-56 -177 0
-56 -186 0
-65 -75 0
-65 -83 0
-65 -101 0
-65 -109 0
-65 -118 0
-65 -128 0
-65 -138 0
-65 -147 0
-65 -157 0
-65 -167 0
-65 -177 0
-65 -186 0
-75 -83 0
-75 -101 0
-75 -109 0
-75 -118 0
-75 -128 0
-75 -138 0
-75 -147 0
-75 -157 0
-75 -167 0
-75 -177 0
-75 -186 0
-83 -101 0
-83 -109 0
-83 -118 0
-83 -128 0
-83 -138 0
-83 -147 0
-83 -157 0
-83 -167 0
-83 -177 0
-83 -186 0
-101 -109 0
-101 -118 0
-101 -128 0
-101 -138 0
-101 -147 0
-101 -157 0
-101 -167 0
-101 -177 0
-101 -186 0
-109 -118 0
-109 -128 0
-109 -138 0
-109 -147 0
-109 -157 0
-109 -167 0
-109 -177 0
-109 -186 0
-118 -128 0
-118 -138 0
-118 -147 0
-118 -157 0
-118 -167 0
-118 -177 0
-118 -186 0
-128 -138 0
-128 -147 0
-128 -157 0
-128 -167 0
-128 -177 0
-128 -186 0
-138 -147 0
-138 -157 0
-138 -167 0
-138 -177 0
-138 -186 0
-147 -157 0
-147 -167 0
-147 -177 0
-147 -186 0
-157 -167 0
-157 -177 0
-157 -186 0
-167 -177 0
-167 -186 0
-177 -186 0